language ESSENCE' 1.0

letting jobs = 102
letting horizon = 800
letting resourcesRenew = 2
letting resourcesNonrenew = 2
letting resourceLimits = [57, 56, 362, 382]
letting successors = [[2, 3, 4, 5, 6, 7, 9, 10, 11, 12, 13, 14, 15, 16, 17, 18, 19, 20, 21, 23, 24, 25, 26, 27, 30, 31, 34, 37, 47], [100, 99, 96, 72, 71, 43, 33, 8], [101, 100, 96, 95, 86, 74, 73, 72, 71, 67, 60, 56, 55, 53, 45, 44, 43, 40, 39, 29], [100, 90, 74, 73, 71, 70, 67, 60, 59, 57, 56, 54, 50, 46, 43, 22], [101, 100, 98, 96, 90, 89, 88, 86, 73, 71, 69, 68, 67, 62, 60, 50, 49, 48, 44, 43, 38], [101, 98, 96, 91, 88, 73, 72, 71, 69, 68, 66, 63, 59, 57, 50, 49, 44, 40, 36], [101, 100, 98, 97, 95, 94, 93, 92, 90, 87, 84, 73, 69, 67, 61, 60, 56, 54, 46, 40, 35], [89, 86, 74, 73, 69, 68, 62, 58, 53, 51, 50, 49, 45, 44, 41, 39], [96, 92, 88, 87, 73, 71, 62, 46, 44, 41, 28], [101, 100, 97, 94, 91, 90, 87, 74, 71, 70, 67, 63, 61, 60, 59, 55, 54, 53, 50, 40], [100, 94, 88, 85, 73, 71, 69, 65, 62, 61, 57, 49, 46, 32], [98, 96, 91, 88, 87, 81, 73, 70, 68, 67, 66, 63, 62, 61, 60, 52, 51, 50, 49], [98, 95, 93, 92, 91, 90, 85, 70, 69, 68, 67, 66, 61, 59, 53, 49, 35], [101, 97, 96, 91, 89, 88, 87, 84, 83, 71, 69, 68, 64, 60, 50, 39], [98, 96, 93, 92, 91, 90, 87, 86, 82, 72, 68, 67, 66, 65, 64, 63, 60, 59, 56, 55], [101, 100, 98, 97, 96, 95, 90, 89, 88, 87, 86, 85, 82, 74, 69, 67, 63, 61, 49, 42], [97, 96, 94, 88, 87, 85, 83, 74, 73, 70, 69, 65, 59, 50, 49, 46], [101, 100, 99, 97, 96, 95, 93, 91, 74, 67, 66, 61, 60, 59, 57, 53, 52], [100, 99, 96, 93, 92, 90, 88, 87, 86, 67, 54, 51, 43, 40], [99, 98, 97, 94, 92, 91, 89, 88, 87, 86, 84, 80, 79, 77, 76, 72, 71, 67, 66, 64, 53], [99, 98, 96, 94, 93, 91, 89, 88, 87, 86, 83, 77, 76, 71, 70, 67, 66, 60, 53], [99, 98, 97, 92, 89, 88, 87, 86, 85, 83, 77, 69, 68, 64, 55, 53], [100, 97, 91, 90, 89, 87, 77, 74, 71, 67, 64, 55, 54, 53], [95, 92, 90, 87, 85, 72, 71, 67, 64, 62, 59, 55, 53], [96, 94, 93, 88, 84, 82, 69, 65, 63, 62, 59, 46], [100, 97, 96, 95, 92, 88, 87, 86, 84, 83, 81, 78, 67, 66, 64, 61, 60], [101, 100, 97, 85, 83, 82, 78, 73, 65, 63, 62, 46], [100, 93, 86, 84, 80, 70, 69, 68, 65, 59, 43], [99, 98, 94, 91, 87, 85, 84, 83, 82, 81, 78, 77, 68, 64, 63], [96, 95, 93, 90, 89, 88, 87, 84, 82, 78, 75, 72, 65, 60], [100, 99, 95, 94, 90, 89, 88, 85, 80, 76, 72, 68, 58], [99, 98, 96, 95, 93, 92, 89, 86, 84, 82, 78, 77, 72, 66, 64], [97, 95, 91, 88, 87, 84, 82, 81, 78, 77, 76, 64, 60], [101, 95, 90, 88, 87, 86, 85, 83, 82, 80, 79, 78, 76, 64], [96, 88, 86, 82, 80, 79, 78, 77, 76, 72, 65, 64], [100, 99, 90, 89, 87, 83, 80, 78, 75, 65, 61], [98, 94, 84, 83, 82, 80, 79, 65, 64, 59], [92, 91, 87, 82, 80, 79, 76, 65, 59], [92, 90, 82, 66, 65, 61, 59], [89, 83, 80, 78, 65, 64, 62], [94, 90, 79, 76, 67, 59], [92, 79, 76, 65, 64, 59], [94, 85, 83, 66, 64, 61], [97, 93, 82, 79, 76, 70, 64], [98, 97, 80, 77, 76, 66, 64], [91, 89, 86, 80, 68, 64], [86, 83, 81, 79, 77, 67], [99, 91, 81, 79, 76, 75], [84, 80, 77, 76, 64], [95, 93, 82, 78, 77], [83, 82, 79, 77, 76], [94, 90, 82, 76, 75], [82, 78, 75, 65], [83, 78, 76, 66], [84, 80, 76, 75], [99, 88, 78, 76], [92, 86, 77, 75], [78, 77, 64], [81, 78, 77], [85, 80, 79], [77, 76], [79, 77], [80, 76], [75], [81], [75], [75], [79], [81], [75], [78], [83], [76], [80], [102], [102], [102], [102], [102], [102], [102], [102], [102], [102], [102], [102], [102], [102], [102], [102], [102], [102], [102], [102], [102], [102], [102], [102], [102], [102], [102], []]
letting durations = [[0], [2, 3, 4], [1, 2, 3], [2, 4, 5], [9, 9, 10], [6, 7, 8], [1, 7, 8], [1, 2, 10], [1, 6, 7], [4, 5, 6], [2, 5, 10], [4, 8, 10], [2, 4, 5], [5, 5, 6], [3, 4, 7], [2, 5, 7], [2, 4, 9], [3, 6, 8], [5, 9, 10], [4, 5, 9], [2, 8, 10], [1, 4, 5], [5, 6, 10], [3, 4, 7], [4, 6, 8], [1, 3, 6], [3, 5, 8], [3, 8, 9], [6, 8, 10], [3, 3, 5], [1, 6, 10], [4, 6, 10], [1, 2, 7], [4, 5, 6], [6, 9, 10], [2, 3, 9], [1, 8, 10], [1, 3, 10], [2, 8, 9], [2, 8, 9], [3, 9, 10], [6, 8, 10], [7, 9, 9], [3, 9, 10], [5, 7, 8], [2, 4, 9], [4, 6, 7], [4, 5, 10], [3, 5, 9], [1, 2, 3], [2, 5, 8], [2, 4, 9], [1, 7, 8], [2, 8, 8], [3, 6, 10], [2, 4, 7], [3, 4, 7], [4, 6, 10], [1, 3, 8], [3, 4, 8], [2, 3, 4], [2, 5, 6], [1, 3, 8], [3, 4, 8], [5, 7, 9], [5, 8, 9], [1, 9, 10], [1, 1, 2], [2, 3, 4], [1, 6, 8], [4, 6, 10], [7, 8, 10], [2, 8, 10], [5, 6, 8], [2, 2, 8], [1, 3, 8], [2, 6, 8], [4, 8, 10], [1, 2, 6], [3, 7, 10], [4, 9, 10], [1, 6, 7], [1, 2, 6], [4, 6, 10], [2, 3, 9], [2, 4, 5], [2, 3, 6], [1, 5, 9], [3, 4, 6], [4, 8, 9], [2, 2, 10], [1, 3, 5], [3, 6, 9], [4, 8, 10], [2, 6, 10], [2, 7, 10], [5, 6, 9], [1, 2, 5], [2, 4, 6], [2, 6, 7], [1, 6, 8], [0]]
letting resourceUsage = [[[0, 0, 0, 0]], [[7, 6, 3, 0], [5, 6, 2, 0], [5, 6, 0, 8]], [[5, 9, 8, 0], [4, 7, 8, 0], [3, 6, 5, 0]], [[10, 3, 5, 0], [9, 3, 0, 6], [9, 3, 0, 5]], [[9, 5, 0, 6], [8, 2, 5, 0], [8, 2, 4, 0]], [[8, 2, 0, 6], [7, 1, 3, 0], [6, 1, 0, 3]], [[6, 6, 0, 9], [5, 5, 0, 8], [4, 5, 2, 0]], [[2, 8, 0, 6], [2, 8, 0, 4], [2, 7, 0, 3]], [[2, 10, 8, 0], [1, 9, 0, 8], [1, 9, 3, 0]], [[4, 6, 0, 5], [3, 4, 0, 5], [3, 3, 3, 0]], [[8, 1, 8, 0], [7, 1, 7, 0], [6, 1, 7, 0]], [[10, 9, 0, 4], [8, 6, 0, 3], [6, 5, 5, 0]], [[10, 10, 7, 0], [6, 9, 0, 8], [6, 9, 7, 0]], [[7, 6, 6, 0], [7, 4, 0, 2], [6, 2, 0, 2]], [[9, 4, 0, 2], [5, 4, 0, 2], [1, 4, 9, 0]], [[2, 8, 0, 7], [2, 4, 0, 6], [2, 2, 0, 5]], [[8, 5, 0, 6], [8, 5, 4, 0], [7, 3, 3, 0]], [[5, 2, 9, 0], [5, 1, 0, 9], [4, 1, 6, 0]], [[7, 10, 0, 5], [7, 8, 0, 3], [7, 7, 6, 0]], [[2, 6, 6, 0], [1, 5, 0, 6], [1, 5, 0, 5]], [[6, 8, 3, 0], [5, 6, 2, 0], [4, 5, 2, 0]], [[8, 10, 0, 10], [7, 8, 3, 0], [6, 5, 2, 0]], [[9, 8, 0, 4], [8, 6, 3, 0], [8, 6, 2, 0]], [[8, 8, 4, 0], [5, 7, 2, 0], [3, 7, 2, 0]], [[6, 10, 9, 0], [6, 9, 8, 0], [6, 7, 0, 7]], [[7, 9, 6, 0], [7, 7, 0, 7], [7, 6, 3, 0]], [[7, 8, 7, 0], [6, 8, 0, 7], [3, 6, 0, 7]], [[10, 3, 5, 0], [9, 2, 4, 0], [9, 1, 3, 0]], [[5, 7, 7, 0], [5, 3, 7, 0], [5, 1, 0, 7]], [[7, 7, 0, 7], [4, 6, 6, 0], [2, 5, 0, 4]], [[9, 8, 9, 0], [8, 4, 0, 8], [8, 2, 0, 8]], [[8, 10, 7, 0], [7, 5, 7, 0], [7, 3, 0, 6]], [[4, 7, 0, 9], [4, 6, 0, 3], [4, 5, 0, 1]], [[9, 6, 8, 0], [8, 4, 4, 0], [7, 4, 0, 6]], [[10, 6, 0, 10], [10, 3, 6, 0], [10, 1, 6, 0]], [[5, 8, 0, 4], [4, 7, 0, 4], [4, 7, 2, 0]], [[4, 7, 7, 0], [4, 7, 0, 2], [4, 6, 5, 0]], [[10, 8, 0, 4], [8, 4, 0, 3], [8, 4, 3, 0]], [[7, 6, 0, 8], [7, 6, 0, 7], [6, 6, 5, 0]], [[9, 1, 7, 0], [6, 1, 5, 0], [6, 1, 0, 4]], [[6, 3, 5, 0], [5, 2, 3, 0], [3, 2, 0, 2]], [[8, 4, 9, 0], [5, 2, 8, 0], [4, 1, 8, 0]], [[8, 8, 0, 7], [6, 4, 4, 0], [4, 4, 0, 5]], [[6, 7, 0, 5], [5, 7, 6, 0], [4, 6, 5, 0]], [[6, 3, 0, 9], [4, 3, 7, 0], [2, 1, 3, 0]], [[7, 9, 2, 0], [4, 8, 0, 6], [3, 8, 0, 5]], [[9, 7, 0, 5], [5, 5, 0, 4], [5, 4, 0, 3]], [[10, 7, 0, 3], [4, 4, 0, 3], [2, 4, 4, 0]], [[4, 7, 0, 8], [4, 4, 0, 7], [4, 3, 3, 0]], [[3, 6, 0, 9], [2, 4, 5, 0], [2, 1, 5, 0]], [[1, 7, 0, 6], [1, 7, 0, 5], [1, 2, 1, 0]], [[8, 5, 0, 5], [7, 3, 0, 5], [6, 3, 0, 5]], [[6, 9, 5, 0], [5, 7, 4, 0], [2, 6, 0, 4]], [[10, 9, 0, 7], [8, 9, 7, 0], [8, 9, 0, 4]], [[8, 1, 8, 0], [8, 1, 6, 0], [7, 1, 2, 0]], [[1, 9, 0, 4], [1, 6, 1, 0], [1, 3, 1, 0]], [[9, 7, 0, 4], [8, 7, 0, 4], [7, 6, 0, 3]], [[7, 5, 0, 9], [6, 5, 0, 8], [2, 4, 3, 0]], [[8, 7, 0, 4], [5, 6, 5, 0], [4, 6, 1, 0]], [[1, 7, 6, 0], [1, 4, 5, 0], [1, 3, 5, 0]], [[6, 4, 10, 0], [5, 3, 5, 0], [4, 3, 2, 0]], [[8, 5, 0, 7], [6, 3, 0, 7], [3, 3, 0, 6]], [[5, 6, 0, 7], [4, 6, 0, 4], [4, 2, 4, 0]], [[8, 7, 3, 0], [8, 6, 3, 0], [6, 6, 0, 3]], [[10, 9, 0, 1], [9, 8, 0, 1], [8, 7, 4, 0]], [[7, 3, 6, 0], [5, 2, 0, 7], [4, 1, 0, 7]], [[6, 8, 0, 6], [5, 4, 4, 0], [2, 2, 0, 5]], [[9, 8, 6, 0], [9, 7, 0, 5], [9, 6, 5, 0]], [[10, 6, 0, 8], [9, 5, 0, 5], [8, 5, 0, 2]], [[7, 8, 4, 0], [5, 6, 4, 0], [5, 5, 3, 0]], [[8, 7, 0, 6], [6, 6, 3, 0], [4, 5, 2, 0]], [[4, 7, 0, 9], [2, 6, 0, 7], [2, 6, 1, 0]], [[8, 7, 0, 9], [7, 6, 6, 0], [5, 4, 0, 5]], [[2, 5, 0, 4], [1, 5, 3, 0], [1, 2, 3, 0]], [[5, 3, 0, 2], [4, 3, 8, 0], [4, 2, 0, 1]], [[8, 8, 8, 0], [4, 7, 6, 0], [2, 7, 0, 5]], [[7, 3, 0, 8], [5, 3, 0, 7], [1, 3, 0, 5]], [[8, 9, 0, 3], [7, 8, 2, 0], [6, 7, 0, 3]], [[2, 5, 3, 0], [2, 4, 3, 0], [2, 2, 2, 0]], [[7, 6, 6, 0], [7, 5, 0, 2], [5, 4, 0, 1]], [[6, 5, 5, 0], [4, 4, 3, 0], [2, 4, 0, 6]], [[9, 7, 0, 6], [6, 5, 0, 4], [1, 5, 0, 3]], [[10, 4, 9, 0], [9, 3, 9, 0], [9, 2, 0, 2]], [[9, 1, 0, 4], [5, 1, 0, 2], [2, 1, 0, 2]], [[3, 1, 0, 7], [2, 1, 0, 7], [2, 1, 6, 0]], [[5, 6, 7, 0], [5, 4, 6, 0], [3, 1, 0, 2]], [[7, 6, 8, 0], [6, 5, 8, 0], [5, 3, 0, 3]], [[5, 7, 7, 0], [4, 7, 3, 0], [4, 7, 0, 2]], [[1, 6, 0, 5], [1, 4, 0, 5], [1, 3, 0, 4]], [[4, 6, 7, 0], [4, 5, 4, 0], [4, 5, 0, 1]], [[6, 8, 0, 9], [6, 4, 6, 0], [6, 3, 0, 9]], [[9, 5, 10, 0], [9, 3, 8, 0], [9, 3, 0, 3]], [[4, 2, 9, 0], [4, 1, 0, 2], [4, 1, 8, 0]], [[4, 4, 5, 0], [4, 2, 4, 0], [4, 2, 0, 5]], [[3, 4, 5, 0], [1, 3, 5, 0], [1, 2, 4, 0]], [[3, 8, 7, 0], [1, 6, 6, 0], [1, 2, 0, 1]], [[8, 6, 0, 7], [7, 6, 0, 7], [5, 6, 0, 7]], [[10, 8, 0, 8], [9, 7, 0, 4], [9, 5, 0, 3]], [[9, 6, 5, 0], [7, 4, 0, 7], [6, 3, 2, 0]], [[7, 7, 0, 4], [7, 5, 6, 0], [7, 2, 5, 0]], [[9, 4, 0, 5], [8, 3, 0, 3], [5, 3, 0, 3]], [[0, 0, 0, 0]]]
